Problem:    mdvsp
Rows:       49
Columns:    36 (36 integer, 36 binary)
Non-zeros:  164
Status:     INTEGER OPTIMAL
Objective:  obj = 20387 (MINimum)

   No.   Row name        Activity     Lower bound   Upper bound
------ ------------    ------------- ------------- -------------
     1 obj                     20387                             
     2 R0[3]                       1             1             = 
     3 R0[4]                       1             1             = 
     4 R0[5]                       1             1             = 
     5 R0[6]                       1             1             = 
     6 R1[1]                       2                          18 
     7 R1[2]                       0                          26 
     8 R2[1]                       0            -0             = 
     9 R2[2]                       0            -0             = 
    10 R2[3]                       0            -0             = 
    11 R2[4]                       0            -0             = 
    12 R2[5]                       0            -0             = 
    13 R2[6]                       0            -0             = 
    14 R3[1,1]                     0            -0               
    15 R3[1,2]                     0            -0               
    16 R3[1,3]                  5032            -0               
    17 R3[1,4]                  5028            -0               
    18 R3[1,5]                     0            -0               
    19 R3[1,6]                     0            -0               
    20 R3[2,1]                     0            -0               
    21 R3[2,2]                     0            -0               
    22 R3[2,3]                     0            -0               
    23 R3[2,4]                     0            -0               
    24 R3[2,5]                     0            -0               
    25 R3[2,6]                     0            -0               
    26 R3[3,1]                     0            -0               
    27 R3[3,2]                     0            -0               
    28 R3[3,3]                     0            -0               
    29 R3[3,4]                     0            -0               
    30 R3[3,5]                   138            -0               
    31 R3[3,6]                     0            -0               
    32 R3[4,1]                  5052            -0               
    33 R3[4,2]                     0            -0               
    34 R3[4,3]                     0            -0               
    35 R3[4,4]                     0            -0               
    36 R3[4,5]                     0            -0               
    37 R3[4,6]                     0            -0               
    38 R3[5,1]                     0            -0               
    39 R3[5,2]                     0            -0               
    40 R3[5,3]                     0            -0               
    41 R3[5,4]                     0            -0               
    42 R3[5,5]                     0            -0               
    43 R3[5,6]                    84            -0               
    44 R3[6,1]                  5053            -0               
    45 R3[6,2]                     0            -0               
    46 R3[6,3]                     0            -0               
    47 R3[6,4]                     0            -0               
    48 R3[6,5]                     0            -0               
    49 R3[6,6]                     0            -0               

   No. Column name       Activity     Lower bound   Upper bound
------ ------------    ------------- ------------- -------------
     1 Xij[1,1]     *              0             0             1 
     2 Xij[1,2]     *              0             0             1 
     3 Xij[1,3]     *              1             0             1 
     4 Xij[1,4]     *              1             0             1 
     5 Xij[1,5]     *              0             0             1 
     6 Xij[1,6]     *              0             0             1 
     7 Xij[2,1]     *              0             0             1 
     8 Xij[2,2]     *              0             0             1 
     9 Xij[2,3]     *              0             0             1 
    10 Xij[2,4]     *              0             0             1 
    11 Xij[2,5]     *              0             0             1 
    12 Xij[2,6]     *              0             0             1 
    13 Xij[3,1]     *              0             0             1 
    14 Xij[3,2]     *              0             0             1 
    15 Xij[3,3]     *              0             0             1 
    16 Xij[3,4]     *              0             0             1 
    17 Xij[3,5]     *              1             0             1 
    18 Xij[3,6]     *              0             0             1 
    19 Xij[4,1]     *              1             0             1 
    20 Xij[4,2]     *              0             0             1 
    21 Xij[4,3]     *              0             0             1 
    22 Xij[4,4]     *              0             0             1 
    23 Xij[4,5]     *              0             0             1 
    24 Xij[4,6]     *              0             0             1 
    25 Xij[5,1]     *              0             0             1 
    26 Xij[5,2]     *              0             0             1 
    27 Xij[5,3]     *              0             0             1 
    28 Xij[5,4]     *              0             0             1 
    29 Xij[5,5]     *              0             0             1 
    30 Xij[5,6]     *              1             0             1 
    31 Xij[6,1]     *              1             0             1 
    32 Xij[6,2]     *              0             0             1 
    33 Xij[6,3]     *              0             0             1 
    34 Xij[6,4]     *              0             0             1 
    35 Xij[6,5]     *              0             0             1 
    36 Xij[6,6]     *              0             0             1 

Integer feasibility conditions:

KKT.PE: max.abs.err = 0.00e+00 on row 0
        max.rel.err = 0.00e+00 on row 0
        High quality

KKT.PB: max.abs.err = 0.00e+00 on row 0
        max.rel.err = 0.00e+00 on row 0
        High quality

End of output
